language Essence 1.3

letting codeWordLength be 26
letting dist be
        function((1, 1) --> 0, (1, 2) --> 13, (1, 3) --> 11, (1, 4) --> 12, (1, 5) --> 14, (1, 6) --> 10, (1, 7) --> 12,
                 (1, 8) --> 1, (1, 9) --> 0, (1, 10) --> 18, (1, 11) --> 13, (1, 12) --> 5, (1, 13) --> 8,
                 (1, 14) --> 12, (1, 15) --> 13, (1, 16) --> 10, (1, 17) --> 4, (1, 18) --> 18, (1, 19) --> 16,
                 (1, 20) --> 9, (2, 1) --> 13, (2, 2) --> 0, (2, 3) --> 1, (2, 4) --> 11, (2, 5) --> 9, (2, 6) --> 13,
                 (2, 7) --> 16, (2, 8) --> 1, (2, 9) --> 19, (2, 10) --> 9, (2, 11) --> 2, (2, 12) --> 12,
                 (2, 13) --> 5, (2, 14) --> 19, (2, 15) --> 8, (2, 16) --> 12, (2, 17) --> 0, (2, 18) --> 12,
                 (2, 19) --> 4, (2, 20) --> 7, (3, 1) --> 11, (3, 2) --> 1, (3, 3) --> 0, (3, 4) --> 19, (3, 5) --> 7,
                 (3, 6) --> 18, (3, 7) --> 7, (3, 8) --> 0, (3, 9) --> 16, (3, 10) --> 3, (3, 11) --> 0, (3, 12) --> 17,
                 (3, 13) --> 13, (3, 14) --> 12, (3, 15) --> 0, (3, 16) --> 7, (3, 17) --> 8, (3, 18) --> 9,
                 (3, 19) --> 13, (3, 20) --> 11, (4, 1) --> 12, (4, 2) --> 11, (4, 3) --> 19, (4, 4) --> 0,
                 (4, 5) --> 2, (4, 6) --> 1, (4, 7) --> 15, (4, 8) --> 15, (4, 9) --> 3, (4, 10) --> 7, (4, 11) --> 11,
                 (4, 12) --> 13, (4, 13) --> 8, (4, 14) --> 7, (4, 15) --> 12, (4, 16) --> 3, (4, 17) --> 2,
                 (4, 18) --> 8, (4, 19) --> 7, (4, 20) --> 11, (5, 1) --> 14, (5, 2) --> 9, (5, 3) --> 7, (5, 4) --> 2,
                 (5, 5) --> 0, (5, 6) --> 15, (5, 7) --> 2, (5, 8) --> 12, (5, 9) --> 15, (5, 10) --> 13,
                 (5, 11) --> 19, (5, 12) --> 5, (5, 13) --> 18, (5, 14) --> 14, (5, 15) --> 18, (5, 16) --> 6,
                 (5, 17) --> 16, (5, 18) --> 17, (5, 19) --> 4, (5, 20) --> 3, (6, 1) --> 10, (6, 2) --> 13,
                 (6, 3) --> 18, (6, 4) --> 1, (6, 5) --> 15, (6, 6) --> 0, (6, 7) --> 1, (6, 8) --> 19, (6, 9) --> 17,
                 (6, 10) --> 14, (6, 11) --> 9, (6, 12) --> 15, (6, 13) --> 11, (6, 14) --> 18, (6, 15) --> 19,
                 (6, 16) --> 5, (6, 17) --> 16, (6, 18) --> 5, (6, 19) --> 12, (6, 20) --> 11, (7, 1) --> 12,
                 (7, 2) --> 16, (7, 3) --> 7, (7, 4) --> 15, (7, 5) --> 2, (7, 6) --> 1, (7, 7) --> 0, (7, 8) --> 5,
                 (7, 9) --> 10, (7, 10) --> 13, (7, 11) --> 13, (7, 12) --> 14, (7, 13) --> 2, (7, 14) --> 4,
                 (7, 15) --> 14, (7, 16) --> 5, (7, 17) --> 4, (7, 18) --> 4, (7, 19) --> 3, (7, 20) --> 9,
                 (8, 1) --> 1, (8, 2) --> 1, (8, 3) --> 0, (8, 4) --> 15, (8, 5) --> 12, (8, 6) --> 19, (8, 7) --> 5,
                 (8, 8) --> 0, (8, 9) --> 7, (8, 10) --> 14, (8, 11) --> 14, (8, 12) --> 4, (8, 13) --> 12,
                 (8, 14) --> 12, (8, 15) --> 1, (8, 16) --> 0, (8, 17) --> 0, (8, 18) --> 0, (8, 19) --> 12,
                 (8, 20) --> 6, (9, 1) --> 0, (9, 2) --> 19, (9, 3) --> 16, (9, 4) --> 3, (9, 5) --> 15, (9, 6) --> 17,
                 (9, 7) --> 10, (9, 8) --> 7, (9, 9) --> 0, (9, 10) --> 15, (9, 11) --> 11, (9, 12) --> 19,
                 (9, 13) --> 7, (9, 14) --> 13, (9, 15) --> 8, (9, 16) --> 12, (9, 17) --> 2, (9, 18) --> 4,
                 (9, 19) --> 7, (9, 20) --> 10, (10, 1) --> 18, (10, 2) --> 9, (10, 3) --> 3, (10, 4) --> 7,
                 (10, 5) --> 13, (10, 6) --> 14, (10, 7) --> 13, (10, 8) --> 14, (10, 9) --> 15, (10, 10) --> 0,
                 (10, 11) --> 3, (10, 12) --> 10, (10, 13) --> 0, (10, 14) --> 9, (10, 15) --> 16, (10, 16) --> 5,
                 (10, 17) --> 18, (10, 18) --> 12, (10, 19) --> 4, (10, 20) --> 9, (11, 1) --> 13, (11, 2) --> 2,
                 (11, 3) --> 0, (11, 4) --> 11, (11, 5) --> 19, (11, 6) --> 9, (11, 7) --> 13, (11, 8) --> 14,
                 (11, 9) --> 11, (11, 10) --> 3, (11, 11) --> 0, (11, 12) --> 8, (11, 13) --> 7, (11, 14) --> 6,
                 (11, 15) --> 0, (11, 16) --> 13, (11, 17) --> 7, (11, 18) --> 13, (11, 19) --> 0, (11, 20) --> 6,
                 (12, 1) --> 5, (12, 2) --> 12, (12, 3) --> 17, (12, 4) --> 13, (12, 5) --> 5, (12, 6) --> 15,
                 (12, 7) --> 14, (12, 8) --> 4, (12, 9) --> 19, (12, 10) --> 10, (12, 11) --> 8, (12, 12) --> 0,
                 (12, 13) --> 16, (12, 14) --> 1, (12, 15) --> 8, (12, 16) --> 13, (12, 17) --> 13, (12, 18) --> 17,
                 (12, 19) --> 8, (12, 20) --> 14, (13, 1) --> 8, (13, 2) --> 5, (13, 3) --> 13, (13, 4) --> 8,
                 (13, 5) --> 18, (13, 6) --> 11, (13, 7) --> 2, (13, 8) --> 12, (13, 9) --> 7, (13, 10) --> 0,
                 (13, 11) --> 7, (13, 12) --> 16, (13, 13) --> 0, (13, 14) --> 1, (13, 15) --> 15, (13, 16) --> 5,
                 (13, 17) --> 0, (13, 18) --> 2, (13, 19) --> 10, (13, 20) --> 10, (14, 1) --> 12, (14, 2) --> 19,
                 (14, 3) --> 12, (14, 4) --> 7, (14, 5) --> 14, (14, 6) --> 18, (14, 7) --> 4, (14, 8) --> 12,
                 (14, 9) --> 13, (14, 10) --> 9, (14, 11) --> 6, (14, 12) --> 1, (14, 13) --> 1, (14, 14) --> 0,
                 (14, 15) --> 16, (14, 16) --> 9, (14, 17) --> 8, (14, 18) --> 15, (14, 19) --> 0, (14, 20) --> 4,
                 (15, 1) --> 13, (15, 2) --> 8, (15, 3) --> 0, (15, 4) --> 12, (15, 5) --> 18, (15, 6) --> 19,
                 (15, 7) --> 14, (15, 8) --> 1, (15, 9) --> 8, (15, 10) --> 16, (15, 11) --> 0, (15, 12) --> 8,
                 (15, 13) --> 15, (15, 14) --> 16, (15, 15) --> 0, (15, 16) --> 16, (15, 17) --> 2, (15, 18) --> 18,
                 (15, 19) --> 7, (15, 20) --> 18, (16, 1) --> 10, (16, 2) --> 12, (16, 3) --> 7, (16, 4) --> 3,
                 (16, 5) --> 6, (16, 6) --> 5, (16, 7) --> 5, (16, 8) --> 0, (16, 9) --> 12, (16, 10) --> 5,
                 (16, 11) --> 13, (16, 12) --> 13, (16, 13) --> 5, (16, 14) --> 9, (16, 15) --> 16, (16, 16) --> 0,
                 (16, 17) --> 7, (16, 18) --> 1, (16, 19) --> 18, (16, 20) --> 8, (17, 1) --> 4, (17, 2) --> 0,
                 (17, 3) --> 8, (17, 4) --> 2, (17, 5) --> 16, (17, 6) --> 16, (17, 7) --> 4, (17, 8) --> 0,
                 (17, 9) --> 2, (17, 10) --> 18, (17, 11) --> 7, (17, 12) --> 13, (17, 13) --> 0, (17, 14) --> 8,
                 (17, 15) --> 2, (17, 16) --> 7, (17, 17) --> 0, (17, 18) --> 13, (17, 19) --> 14, (17, 20) --> 8,
                 (18, 1) --> 18, (18, 2) --> 12, (18, 3) --> 9, (18, 4) --> 8, (18, 5) --> 17, (18, 6) --> 5,
                 (18, 7) --> 4, (18, 8) --> 0, (18, 9) --> 4, (18, 10) --> 12, (18, 11) --> 13, (18, 12) --> 17,
                 (18, 13) --> 2, (18, 14) --> 15, (18, 15) --> 18, (18, 16) --> 1, (18, 17) --> 13, (18, 18) --> 0,
                 (18, 19) --> 18, (18, 20) --> 6, (19, 1) --> 16, (19, 2) --> 4, (19, 3) --> 13, (19, 4) --> 7,
                 (19, 5) --> 4, (19, 6) --> 12, (19, 7) --> 3, (19, 8) --> 12, (19, 9) --> 7, (19, 10) --> 4,
                 (19, 11) --> 0, (19, 12) --> 8, (19, 13) --> 10, (19, 14) --> 0, (19, 15) --> 7, (19, 16) --> 18,
                 (19, 17) --> 14, (19, 18) --> 18, (19, 19) --> 0, (19, 20) --> 13, (20, 1) --> 9, (20, 2) --> 7,
                 (20, 3) --> 11, (20, 4) --> 11, (20, 5) --> 3, (20, 6) --> 11, (20, 7) --> 9, (20, 8) --> 6,
                 (20, 9) --> 10, (20, 10) --> 9, (20, 11) --> 6, (20, 12) --> 14, (20, 13) --> 10, (20, 14) --> 4,
                 (20, 15) --> 18, (20, 16) --> 8, (20, 17) --> 8, (20, 18) --> 6, (20, 19) --> 13, (20, 20) --> 0)
letting maxDist be 19
letting minDist be 153
letting nbCharacter be 20
letting numOfCodeWords be 4
